param set_len = 80;
param target := 757993;
set values := 18081, 24931, 25903, 30364, 4023, 31502, 9247, 4344, 11212, 9658, 8336, 6969, 7786, 9949, 31231, 25508, 28196, 7407, 7945, 12354, 4993, 29898, 31310, 5388, 12967, 13690, 29434, 11117, 31612, 21931, 27335, 16244, 21219, 32537, 23510, 28161, 30786, 10539, 26205, 16172, 27164, 21863, 25556, 19184, 4364, 21776, 12240, 8112, 29841, 22751, 13633, 11023, 7269, 16679, 21213, 7243, 32540, 14873, 16674, 14309, 4527, 9929, 4328, 23658, 20216, 26870, 12850, 21294, 11773, 23647, 28440, 29907, 15915, 32480, 8585, 20753, 4704, 32468, 2870, 2699, ;
